instances/shortest_path/discrete/shortest_path_7_14.lp
\ Model nohadani_7_14
\ LP format - for model browsing. Use MPS format to capture full model detail.
\ Signature: 0x917f322750627386
Minimize
  54.91812087098393 y[0,1] + 43.1740662898458 y[0,2]
   + 85.63293758829018 y[0,5] + 17.46424919657298 y[0,6]
   + 54.91812087098393 y[1,0] + 80.49844718999243 y[1,2]
   + 84.581321815162 y[1,3] + 45.35416188179427 y[1,4]
   + 47.63402145525821 y[1,6] + 43.1740662898458 y[2,0]
   + 80.49844718999243 y[2,1] + 71.17583859709698 y[2,3]
   + 52.39274758971894 y[2,5] + 35.51056180912941 y[2,6]
   + 84.581321815162 y[3,1] + 71.17583859709698 y[3,2]
   + 66.61080993352356 y[3,4] + 28.0178514522438 y[3,5]
   + 76.32168761236873 y[3,6] + 45.35416188179427 y[4,1]
   + 66.61080993352356 y[4,3] + 88.02272433866155 y[4,5]
   + 78.43468620451031 y[4,6] + 85.63293758829018 y[5,0]
   + 52.39274758971894 y[5,2] + 28.0178514522438 y[5,3]
   + 88.02272433866155 y[5,4] + 70 y[5,6] + 17.46424919657298 y[6,0]
   + 47.63402145525821 y[6,1] + 35.51056180912941 y[6,2]
   + 76.32168761236873 y[6,3] + 78.43468620451031 y[6,4] + 70 y[6,5]
   + x[0,1] + x[0,2] + x[0,5] + x[0,6] + x[1,0] + x[1,2] + x[1,3] + x[1,4]
   + x[1,6] + x[2,0] + x[2,1] + x[2,3] + x[2,5] + x[2,6] + x[3,1] + x[3,2]
   + x[3,4] + x[3,5] + x[3,6] + x[4,1] + x[4,3] + x[4,5] + x[4,6] + x[5,0]
   + x[5,2] + x[5,3] + x[5,4] + x[5,6] + x[6,0] + x[6,1] + x[6,2] + x[6,3]
   + x[6,4] + x[6,5] + 5.491812087098393 r[0,1] + 4.317406628984581 r[0,2]
   + 8.563293758829017 r[0,5] + 1.746424919657298 r[0,6]
   + 5.491812087098393 r[1,0] + 8.049844718999244 r[1,2]
   + 8.4581321815162 r[1,3] + 4.535416188179427 r[1,4]
   + 4.763402145525822 r[1,6] + 4.317406628984581 r[2,0]
   + 8.049844718999244 r[2,1] + 7.117583859709699 r[2,3]
   + 5.239274758971895 r[2,5] + 3.551056180912941 r[2,6]
   + 8.4581321815162 r[3,1] + 7.117583859709699 r[3,2]
   + 6.661080993352356 r[3,4] + 2.80178514522438 r[3,5]
   + 7.632168761236874 r[3,6] + 4.535416188179427 r[4,1]
   + 6.661080993352356 r[4,3] + 8.802272433866156 r[4,5]
   + 7.843468620451032 r[4,6] + 8.563293758829017 r[5,0]
   + 5.239274758971895 r[5,2] + 2.80178514522438 r[5,3]
   + 8.802272433866156 r[5,4] + 7 r[5,6] + 1.746424919657298 r[6,0]
   + 4.763402145525822 r[6,1] + 3.551056180912941 r[6,2]
   + 7.632168761236874 r[6,3] + 7.843468620451032 r[6,4] + 7 r[6,5]
Subject To
 flow_cons_inner_nodes[0]: - y[0,1] - y[0,2] - y[0,5] - y[0,6] + y[1,0]
   + y[2,0] + y[5,0] + y[6,0] = 0
 flow_cons_inner_nodes[1]: y[0,1] - y[1,0] - y[1,2] - y[1,3] - y[1,4]
   - y[1,6] + y[2,1] + y[3,1] + y[4,1] + y[6,1] = 0
 flow_cons_inner_nodes[3]: y[1,3] + y[2,3] - y[3,1] - y[3,2] - y[3,4]
   - y[3,5] - y[3,6] + y[4,3] + y[5,3] + y[6,3] = 0
 flow_cons_inner_nodes[5]: y[0,5] + y[2,5] + y[3,5] + y[4,5] - y[5,0]
   - y[5,2] - y[5,3] - y[5,4] - y[5,6] + y[6,5] = 0
 flow_cons_inner_nodes[6]: y[0,6] + y[1,6] + y[2,6] + y[3,6] + y[4,6]
   + y[5,6] - y[6,0] - y[6,1] - y[6,2] - y[6,3] - y[6,4] - y[6,5] = 0
 flow_cons_source: - y[0,2] - y[1,2] + y[2,0] + y[2,1] + y[2,3] + y[2,5]
   + y[2,6] - y[3,2] - y[5,2] - y[6,2] = 1
 flow_cons_target: y[1,4] + y[3,4] - y[4,1] - y[4,3] - y[4,5] - y[4,6]
   + y[5,4] + y[6,4] = 1
 primal_lower: 3.139896569048502 x[0,1] + 2.939819712187973 x[0,2]
   + 2.30623439351693 x[0,5] + 1.024322884517192 x[0,6]
   + 1.073912389853781 x[1,0] + 3.517179354207918 x[1,2]
   + 2.848707036249057 x[1,3] + 1.71629560432097 x[1,4]
   + 2.268456525836774 x[1,6] + 0.7550244302503056 x[2,0]
   + 0.5994585255383639 x[2,1] + 1.605011199020849 x[2,3]
   + 4.600162379924753 x[2,5] + 0.6161277277030579 x[2,6]
   + 0.9675620989877646 x[3,1] + 0.2851471375725247 x[3,2]
   + 3.171329182696805 x[3,4] + 1.505551176708651 x[3,5]
   + 0.0852745005281673 x[3,6] + 1.519054713844083 x[4,1]
   + 1.550193290398183 x[4,3] + 1.452049959426483 x[4,5]
   + 2.096208718976911 x[4,6] + 3.846747399721592 x[5,0]
   + 0.5699548985522481 x[5,2] + 4.071311795188371 x[5,3]
   + 2.405255905038694 x[5,4] + 4.696116708387269 x[5,6]
   + 0.8779274922855854 x[6,0] + 4.219380744612502 x[6,1]
   + 0.1178955149005093 x[6,2] + 1.274008799623521 x[6,3]
   + 1.726356263443607 x[6,4] + 5.351771480926259 x[6,5] + 90 u[0,1]
   + 19 u[0,2] + 61 u[0,5] + 70 u[0,6] + 59 u[1,0] + 44 u[1,2] + 72 u[1,3]
   + 22 u[1,4] + 96 u[1,6] + 17 u[2,0] + 66 u[2,1] + 86 u[2,3] + 67 u[2,5]
   + 91 u[2,6] + 99 u[3,1] + 99 u[3,2] + 8 u[3,4] + 63 u[3,5] + 84 u[3,6]
   + 57 u[4,1] + 80 u[4,3] + 10 u[4,5] + 79 u[4,6] + 97 u[5,0] + 19 u[5,2]
   + 71 u[5,3] + 41 u[5,4] + 2 u[5,6] + 32 u[6,0] + 10 u[6,1] + 56 u[6,2]
   + 86 u[6,3] + 54 u[6,4] + 96 u[6,5] <= 182
 mccormick1[0,1]: - u[0,1] + r[0,1] <= 0
 mccormick1[0,2]: - u[0,2] + r[0,2] <= 0
 mccormick1[0,5]: - u[0,5] + r[0,5] <= 0
 mccormick1[0,6]: - u[0,6] + r[0,6] <= 0
 mccormick1[1,0]: - u[1,0] + r[1,0] <= 0
 mccormick1[1,2]: - u[1,2] + r[1,2] <= 0
 mccormick1[1,3]: - u[1,3] + r[1,3] <= 0
 mccormick1[1,4]: - u[1,4] + r[1,4] <= 0
 mccormick1[1,6]: - u[1,6] + r[1,6] <= 0
 mccormick1[2,0]: - u[2,0] + r[2,0] <= 0
 mccormick1[2,1]: - u[2,1] + r[2,1] <= 0
 mccormick1[2,3]: - u[2,3] + r[2,3] <= 0
 mccormick1[2,5]: - u[2,5] + r[2,5] <= 0
 mccormick1[2,6]: - u[2,6] + r[2,6] <= 0
 mccormick1[3,1]: - u[3,1] + r[3,1] <= 0
 mccormick1[3,2]: - u[3,2] + r[3,2] <= 0
 mccormick1[3,4]: - u[3,4] + r[3,4] <= 0
 mccormick1[3,5]: - u[3,5] + r[3,5] <= 0
 mccormick1[3,6]: - u[3,6] + r[3,6] <= 0
 mccormick1[4,1]: - u[4,1] + r[4,1] <= 0
 mccormick1[4,3]: - u[4,3] + r[4,3] <= 0
 mccormick1[4,5]: - u[4,5] + r[4,5] <= 0
 mccormick1[4,6]: - u[4,6] + r[4,6] <= 0
 mccormick1[5,0]: - u[5,0] + r[5,0] <= 0
 mccormick1[5,2]: - u[5,2] + r[5,2] <= 0
 mccormick1[5,3]: - u[5,3] + r[5,3] <= 0
 mccormick1[5,4]: - u[5,4] + r[5,4] <= 0
 mccormick1[5,6]: - u[5,6] + r[5,6] <= 0
 mccormick1[6,0]: - u[6,0] + r[6,0] <= 0
 mccormick1[6,1]: - u[6,1] + r[6,1] <= 0
 mccormick1[6,2]: - u[6,2] + r[6,2] <= 0
 mccormick1[6,3]: - u[6,3] + r[6,3] <= 0
 mccormick1[6,4]: - u[6,4] + r[6,4] <= 0
 mccormick1[6,5]: - u[6,5] + r[6,5] <= 0
 mccormick2[0,1]: - y[0,1] + r[0,1] <= 0
 mccormick2[0,2]: - y[0,2] + r[0,2] <= 0
 mccormick2[0,5]: - y[0,5] + r[0,5] <= 0
 mccormick2[0,6]: - y[0,6] + r[0,6] <= 0
 mccormick2[1,0]: - y[1,0] + r[1,0] <= 0
 mccormick2[1,2]: - y[1,2] + r[1,2] <= 0
 mccormick2[1,3]: - y[1,3] + r[1,3] <= 0
 mccormick2[1,4]: - y[1,4] + r[1,4] <= 0
 mccormick2[1,6]: - y[1,6] + r[1,6] <= 0
 mccormick2[2,0]: - y[2,0] + r[2,0] <= 0
 mccormick2[2,1]: - y[2,1] + r[2,1] <= 0
 mccormick2[2,3]: - y[2,3] + r[2,3] <= 0
 mccormick2[2,5]: - y[2,5] + r[2,5] <= 0
 mccormick2[2,6]: - y[2,6] + r[2,6] <= 0
 mccormick2[3,1]: - y[3,1] + r[3,1] <= 0
 mccormick2[3,2]: - y[3,2] + r[3,2] <= 0
 mccormick2[3,4]: - y[3,4] + r[3,4] <= 0
 mccormick2[3,5]: - y[3,5] + r[3,5] <= 0
 mccormick2[3,6]: - y[3,6] + r[3,6] <= 0
 mccormick2[4,1]: - y[4,1] + r[4,1] <= 0
 mccormick2[4,3]: - y[4,3] + r[4,3] <= 0
 mccormick2[4,5]: - y[4,5] + r[4,5] <= 0
 mccormick2[4,6]: - y[4,6] + r[4,6] <= 0
 mccormick2[5,0]: - y[5,0] + r[5,0] <= 0
 mccormick2[5,2]: - y[5,2] + r[5,2] <= 0
 mccormick2[5,3]: - y[5,3] + r[5,3] <= 0
 mccormick2[5,4]: - y[5,4] + r[5,4] <= 0
 mccormick2[5,6]: - y[5,6] + r[5,6] <= 0
 mccormick2[6,0]: - y[6,0] + r[6,0] <= 0
 mccormick2[6,1]: - y[6,1] + r[6,1] <= 0
 mccormick2[6,2]: - y[6,2] + r[6,2] <= 0
 mccormick2[6,3]: - y[6,3] + r[6,3] <= 0
 mccormick2[6,4]: - y[6,4] + r[6,4] <= 0
 mccormick2[6,5]: - y[6,5] + r[6,5] <= 0
 mccormick3[0,1]: - y[0,1] - u[0,1] + r[0,1] >= -1
 mccormick3[0,2]: - y[0,2] - u[0,2] + r[0,2] >= -1
 mccormick3[0,5]: - y[0,5] - u[0,5] + r[0,5] >= -1
 mccormick3[0,6]: - y[0,6] - u[0,6] + r[0,6] >= -1
 mccormick3[1,0]: - y[1,0] - u[1,0] + r[1,0] >= -1
 mccormick3[1,2]: - y[1,2] - u[1,2] + r[1,2] >= -1
 mccormick3[1,3]: - y[1,3] - u[1,3] + r[1,3] >= -1
 mccormick3[1,4]: - y[1,4] - u[1,4] + r[1,4] >= -1
 mccormick3[1,6]: - y[1,6] - u[1,6] + r[1,6] >= -1
 mccormick3[2,0]: - y[2,0] - u[2,0] + r[2,0] >= -1
 mccormick3[2,1]: - y[2,1] - u[2,1] + r[2,1] >= -1
 mccormick3[2,3]: - y[2,3] - u[2,3] + r[2,3] >= -1
 mccormick3[2,5]: - y[2,5] - u[2,5] + r[2,5] >= -1
 mccormick3[2,6]: - y[2,6] - u[2,6] + r[2,6] >= -1
 mccormick3[3,1]: - y[3,1] - u[3,1] + r[3,1] >= -1
 mccormick3[3,2]: - y[3,2] - u[3,2] + r[3,2] >= -1
 mccormick3[3,4]: - y[3,4] - u[3,4] + r[3,4] >= -1
 mccormick3[3,5]: - y[3,5] - u[3,5] + r[3,5] >= -1
 mccormick3[3,6]: - y[3,6] - u[3,6] + r[3,6] >= -1
 mccormick3[4,1]: - y[4,1] - u[4,1] + r[4,1] >= -1
 mccormick3[4,3]: - y[4,3] - u[4,3] + r[4,3] >= -1
 mccormick3[4,5]: - y[4,5] - u[4,5] + r[4,5] >= -1
 mccormick3[4,6]: - y[4,6] - u[4,6] + r[4,6] >= -1
 mccormick3[5,0]: - y[5,0] - u[5,0] + r[5,0] >= -1
 mccormick3[5,2]: - y[5,2] - u[5,2] + r[5,2] >= -1
 mccormick3[5,3]: - y[5,3] - u[5,3] + r[5,3] >= -1
 mccormick3[5,4]: - y[5,4] - u[5,4] + r[5,4] >= -1
 mccormick3[5,6]: - y[5,6] - u[5,6] + r[5,6] >= -1
 mccormick3[6,0]: - y[6,0] - u[6,0] + r[6,0] >= -1
 mccormick3[6,1]: - y[6,1] - u[6,1] + r[6,1] >= -1
 mccormick3[6,2]: - y[6,2] - u[6,2] + r[6,2] >= -1
 mccormick3[6,3]: - y[6,3] - u[6,3] + r[6,3] >= -1
 mccormick3[6,4]: - y[6,4] - u[6,4] + r[6,4] >= -1
 mccormick3[6,5]: - y[6,5] - u[6,5] + r[6,5] >= -1
Bounds
Binaries
 y[0,1] y[0,2] y[0,5] y[0,6] y[1,0] y[1,2] y[1,3] y[1,4] y[1,6] y[2,0]
 y[2,1] y[2,3] y[2,5] y[2,6] y[3,1] y[3,2] y[3,4] y[3,5] y[3,6] y[4,1]
 y[4,3] y[4,5] y[4,6] y[5,0] y[5,2] y[5,3] y[5,4] y[5,6] y[6,0] y[6,1]
 y[6,2] y[6,3] y[6,4] y[6,5] x[0,1] x[0,2] x[0,5] x[0,6] x[1,0] x[1,2]
 x[1,3] x[1,4] x[1,6] x[2,0] x[2,1] x[2,3] x[2,5] x[2,6] x[3,1] x[3,2]
 x[3,4] x[3,5] x[3,6] x[4,1] x[4,3] x[4,5] x[4,6] x[5,0] x[5,2] x[5,3]
 x[5,4] x[5,6] x[6,0] x[6,1] x[6,2] x[6,3] x[6,4] x[6,5] u[0,1] u[0,2]
 u[0,5] u[0,6] u[1,0] u[1,2] u[1,3] u[1,4] u[1,6] u[2,0] u[2,1] u[2,3]
 u[2,5] u[2,6] u[3,1] u[3,2] u[3,4] u[3,5] u[3,6] u[4,1] u[4,3] u[4,5]
 u[4,6] u[5,0] u[5,2] u[5,3] u[5,4] u[5,6] u[6,0] u[6,1] u[6,2] u[6,3]
 u[6,4] u[6,5] r[0,1] r[0,2] r[0,5] r[0,6] r[1,0] r[1,2] r[1,3] r[1,4]
 r[1,6] r[2,0] r[2,1] r[2,3] r[2,5] r[2,6] r[3,1] r[3,2] r[3,4] r[3,5]
 r[3,6] r[4,1] r[4,3] r[4,5] r[4,6] r[5,0] r[5,2] r[5,3] r[5,4] r[5,6]
 r[6,0] r[6,1] r[6,2] r[6,3] r[6,4] r[6,5]
End
