instances/shortest_path/discrete/shortest_path_7_14.mps
* Signature: 0x917f322750627386
NAME nohadani_7_14
ROWS
 N  OBJ
 E  flow_cons_inner_nodes[0]
 E  flow_cons_inner_nodes[1]
 E  flow_cons_inner_nodes[3]
 E  flow_cons_inner_nodes[5]
 E  flow_cons_inner_nodes[6]
 E  flow_cons_source
 E  flow_cons_target
 L  primal_lower
 L  mccormick1[0,1]
 L  mccormick1[0,2]
 L  mccormick1[0,5]
 L  mccormick1[0,6]
 L  mccormick1[1,0]
 L  mccormick1[1,2]
 L  mccormick1[1,3]
 L  mccormick1[1,4]
 L  mccormick1[1,6]
 L  mccormick1[2,0]
 L  mccormick1[2,1]
 L  mccormick1[2,3]
 L  mccormick1[2,5]
 L  mccormick1[2,6]
 L  mccormick1[3,1]
 L  mccormick1[3,2]
 L  mccormick1[3,4]
 L  mccormick1[3,5]
 L  mccormick1[3,6]
 L  mccormick1[4,1]
 L  mccormick1[4,3]
 L  mccormick1[4,5]
 L  mccormick1[4,6]
 L  mccormick1[5,0]
 L  mccormick1[5,2]
 L  mccormick1[5,3]
 L  mccormick1[5,4]
 L  mccormick1[5,6]
 L  mccormick1[6,0]
 L  mccormick1[6,1]
 L  mccormick1[6,2]
 L  mccormick1[6,3]
 L  mccormick1[6,4]
 L  mccormick1[6,5]
 L  mccormick2[0,1]
 L  mccormick2[0,2]
 L  mccormick2[0,5]
 L  mccormick2[0,6]
 L  mccormick2[1,0]
 L  mccormick2[1,2]
 L  mccormick2[1,3]
 L  mccormick2[1,4]
 L  mccormick2[1,6]
 L  mccormick2[2,0]
 L  mccormick2[2,1]
 L  mccormick2[2,3]
 L  mccormick2[2,5]
 L  mccormick2[2,6]
 L  mccormick2[3,1]
 L  mccormick2[3,2]
 L  mccormick2[3,4]
 L  mccormick2[3,5]
 L  mccormick2[3,6]
 L  mccormick2[4,1]
 L  mccormick2[4,3]
 L  mccormick2[4,5]
 L  mccormick2[4,6]
 L  mccormick2[5,0]
 L  mccormick2[5,2]
 L  mccormick2[5,3]
 L  mccormick2[5,4]
 L  mccormick2[5,6]
 L  mccormick2[6,0]
 L  mccormick2[6,1]
 L  mccormick2[6,2]
 L  mccormick2[6,3]
 L  mccormick2[6,4]
 L  mccormick2[6,5]
 G  mccormick3[0,1]
 G  mccormick3[0,2]
 G  mccormick3[0,5]
 G  mccormick3[0,6]
 G  mccormick3[1,0]
 G  mccormick3[1,2]
 G  mccormick3[1,3]
 G  mccormick3[1,4]
 G  mccormick3[1,6]
 G  mccormick3[2,0]
 G  mccormick3[2,1]
 G  mccormick3[2,3]
 G  mccormick3[2,5]
 G  mccormick3[2,6]
 G  mccormick3[3,1]
 G  mccormick3[3,2]
 G  mccormick3[3,4]
 G  mccormick3[3,5]
 G  mccormick3[3,6]
 G  mccormick3[4,1]
 G  mccormick3[4,3]
 G  mccormick3[4,5]
 G  mccormick3[4,6]
 G  mccormick3[5,0]
 G  mccormick3[5,2]
 G  mccormick3[5,3]
 G  mccormick3[5,4]
 G  mccormick3[5,6]
 G  mccormick3[6,0]
 G  mccormick3[6,1]
 G  mccormick3[6,2]
 G  mccormick3[6,3]
 G  mccormick3[6,4]
 G  mccormick3[6,5]
COLUMNS
    MARKER    'MARKER'                 'INTORG'
    y[0,1]    OBJ       5.4918120870983927e+01
    y[0,1]    flow_cons_inner_nodes[0]  -1
    y[0,1]    flow_cons_inner_nodes[1]  1
    y[0,1]    mccormick2[0,1]  -1
    y[0,1]    mccormick3[0,1]  -1
    y[0,2]    OBJ       4.3174066289845804e+01
    y[0,2]    flow_cons_inner_nodes[0]  -1
    y[0,2]    flow_cons_source  -1
    y[0,2]    mccormick2[0,2]  -1
    y[0,2]    mccormick3[0,2]  -1
    y[0,5]    OBJ       8.5632937588290176e+01
    y[0,5]    flow_cons_inner_nodes[0]  -1
    y[0,5]    flow_cons_inner_nodes[5]  1
    y[0,5]    mccormick2[0,5]  -1
    y[0,5]    mccormick3[0,5]  -1
    y[0,6]    OBJ       1.7464249196572979e+01
    y[0,6]    flow_cons_inner_nodes[0]  -1
    y[0,6]    flow_cons_inner_nodes[6]  1
    y[0,6]    mccormick2[0,6]  -1
    y[0,6]    mccormick3[0,6]  -1
    y[1,0]    OBJ       5.4918120870983927e+01
    y[1,0]    flow_cons_inner_nodes[0]  1
    y[1,0]    flow_cons_inner_nodes[1]  -1
    y[1,0]    mccormick2[1,0]  -1
    y[1,0]    mccormick3[1,0]  -1
    y[1,2]    OBJ       8.0498447189992433e+01
    y[1,2]    flow_cons_inner_nodes[1]  -1
    y[1,2]    flow_cons_source  -1
    y[1,2]    mccormick2[1,2]  -1
    y[1,2]    mccormick3[1,2]  -1
    y[1,3]    OBJ       84.581321815162
    y[1,3]    flow_cons_inner_nodes[1]  -1
    y[1,3]    flow_cons_inner_nodes[3]  1
    y[1,3]    mccormick2[1,3]  -1
    y[1,3]    mccormick3[1,3]  -1
    y[1,4]    OBJ       4.5354161881794269e+01
    y[1,4]    flow_cons_inner_nodes[1]  -1
    y[1,4]    flow_cons_target  1
    y[1,4]    mccormick2[1,4]  -1
    y[1,4]    mccormick3[1,4]  -1
    y[1,6]    OBJ       4.7634021455258214e+01
    y[1,6]    flow_cons_inner_nodes[1]  -1
    y[1,6]    flow_cons_inner_nodes[6]  1
    y[1,6]    mccormick2[1,6]  -1
    y[1,6]    mccormick3[1,6]  -1
    y[2,0]    OBJ       4.3174066289845804e+01
    y[2,0]    flow_cons_inner_nodes[0]  1
    y[2,0]    flow_cons_source  1
    y[2,0]    mccormick2[2,0]  -1
    y[2,0]    mccormick3[2,0]  -1
    y[2,1]    OBJ       8.0498447189992433e+01
    y[2,1]    flow_cons_inner_nodes[1]  1
    y[2,1]    flow_cons_source  1
    y[2,1]    mccormick2[2,1]  -1
    y[2,1]    mccormick3[2,1]  -1
    y[2,3]    OBJ       7.1175838597096984e+01
    y[2,3]    flow_cons_inner_nodes[3]  1
    y[2,3]    flow_cons_source  1
    y[2,3]    mccormick2[2,3]  -1
    y[2,3]    mccormick3[2,3]  -1
    y[2,5]    OBJ       5.2392747589718944e+01
    y[2,5]    flow_cons_inner_nodes[5]  1
    y[2,5]    flow_cons_source  1
    y[2,5]    mccormick2[2,5]  -1
    y[2,5]    mccormick3[2,5]  -1
    y[2,6]    OBJ       3.5510561809129406e+01
    y[2,6]    flow_cons_inner_nodes[6]  1
    y[2,6]    flow_cons_source  1
    y[2,6]    mccormick2[2,6]  -1
    y[2,6]    mccormick3[2,6]  -1
    y[3,1]    OBJ       84.581321815162
    y[3,1]    flow_cons_inner_nodes[1]  1
    y[3,1]    flow_cons_inner_nodes[3]  -1
    y[3,1]    mccormick2[3,1]  -1
    y[3,1]    mccormick3[3,1]  -1
    y[3,2]    OBJ       7.1175838597096984e+01
    y[3,2]    flow_cons_inner_nodes[3]  -1
    y[3,2]    flow_cons_source  -1
    y[3,2]    mccormick2[3,2]  -1
    y[3,2]    mccormick3[3,2]  -1
    y[3,4]    OBJ       6.6610809933523555e+01
    y[3,4]    flow_cons_inner_nodes[3]  -1
    y[3,4]    flow_cons_target  1
    y[3,4]    mccormick2[3,4]  -1
    y[3,4]    mccormick3[3,4]  -1
    y[3,5]    OBJ       28.0178514522438
    y[3,5]    flow_cons_inner_nodes[3]  -1
    y[3,5]    flow_cons_inner_nodes[5]  1
    y[3,5]    mccormick2[3,5]  -1
    y[3,5]    mccormick3[3,5]  -1
    y[3,6]    OBJ       7.6321687612368734e+01
    y[3,6]    flow_cons_inner_nodes[3]  -1
    y[3,6]    flow_cons_inner_nodes[6]  1
    y[3,6]    mccormick2[3,6]  -1
    y[3,6]    mccormick3[3,6]  -1
    y[4,1]    OBJ       4.5354161881794269e+01
    y[4,1]    flow_cons_inner_nodes[1]  1
    y[4,1]    flow_cons_target  -1
    y[4,1]    mccormick2[4,1]  -1
    y[4,1]    mccormick3[4,1]  -1
    y[4,3]    OBJ       6.6610809933523555e+01
    y[4,3]    flow_cons_inner_nodes[3]  1
    y[4,3]    flow_cons_target  -1
    y[4,3]    mccormick2[4,3]  -1
    y[4,3]    mccormick3[4,3]  -1
    y[4,5]    OBJ       8.8022724338661547e+01
    y[4,5]    flow_cons_inner_nodes[5]  1
    y[4,5]    flow_cons_target  -1
    y[4,5]    mccormick2[4,5]  -1
    y[4,5]    mccormick3[4,5]  -1
    y[4,6]    OBJ       7.8434686204510314e+01
    y[4,6]    flow_cons_inner_nodes[6]  1
    y[4,6]    flow_cons_target  -1
    y[4,6]    mccormick2[4,6]  -1
    y[4,6]    mccormick3[4,6]  -1
    y[5,0]    OBJ       8.5632937588290176e+01
    y[5,0]    flow_cons_inner_nodes[0]  1
    y[5,0]    flow_cons_inner_nodes[5]  -1
    y[5,0]    mccormick2[5,0]  -1
    y[5,0]    mccormick3[5,0]  -1
    y[5,2]    OBJ       5.2392747589718944e+01
    y[5,2]    flow_cons_inner_nodes[5]  -1
    y[5,2]    flow_cons_source  -1
    y[5,2]    mccormick2[5,2]  -1
    y[5,2]    mccormick3[5,2]  -1
    y[5,3]    OBJ       28.0178514522438
    y[5,3]    flow_cons_inner_nodes[3]  1
    y[5,3]    flow_cons_inner_nodes[5]  -1
    y[5,3]    mccormick2[5,3]  -1
    y[5,3]    mccormick3[5,3]  -1
    y[5,4]    OBJ       8.8022724338661547e+01
    y[5,4]    flow_cons_inner_nodes[5]  -1
    y[5,4]    flow_cons_target  1
    y[5,4]    mccormick2[5,4]  -1
    y[5,4]    mccormick3[5,4]  -1
    y[5,6]    OBJ       70
    y[5,6]    flow_cons_inner_nodes[5]  -1
    y[5,6]    flow_cons_inner_nodes[6]  1
    y[5,6]    mccormick2[5,6]  -1
    y[5,6]    mccormick3[5,6]  -1
    y[6,0]    OBJ       1.7464249196572979e+01
    y[6,0]    flow_cons_inner_nodes[0]  1
    y[6,0]    flow_cons_inner_nodes[6]  -1
    y[6,0]    mccormick2[6,0]  -1
    y[6,0]    mccormick3[6,0]  -1
    y[6,1]    OBJ       4.7634021455258214e+01
    y[6,1]    flow_cons_inner_nodes[1]  1
    y[6,1]    flow_cons_inner_nodes[6]  -1
    y[6,1]    mccormick2[6,1]  -1
    y[6,1]    mccormick3[6,1]  -1
    y[6,2]    OBJ       3.5510561809129406e+01
    y[6,2]    flow_cons_inner_nodes[6]  -1
    y[6,2]    flow_cons_source  -1
    y[6,2]    mccormick2[6,2]  -1
    y[6,2]    mccormick3[6,2]  -1
    y[6,3]    OBJ       7.6321687612368734e+01
    y[6,3]    flow_cons_inner_nodes[3]  1
    y[6,3]    flow_cons_inner_nodes[6]  -1
    y[6,3]    mccormick2[6,3]  -1
    y[6,3]    mccormick3[6,3]  -1
    y[6,4]    OBJ       7.8434686204510314e+01
    y[6,4]    flow_cons_inner_nodes[6]  -1
    y[6,4]    flow_cons_target  1
    y[6,4]    mccormick2[6,4]  -1
    y[6,4]    mccormick3[6,4]  -1
    y[6,5]    OBJ       70
    y[6,5]    flow_cons_inner_nodes[5]  1
    y[6,5]    flow_cons_inner_nodes[6]  -1
    y[6,5]    mccormick2[6,5]  -1
    y[6,5]    mccormick3[6,5]  -1
    x[0,1]    OBJ       1
    x[0,1]    primal_lower  3.1398965690485023e+00
    x[0,2]    OBJ       1
    x[0,2]    primal_lower  2.9398197121879730e+00
    x[0,5]    OBJ       1
    x[0,5]    primal_lower  2.3062343935169296e+00
    x[0,6]    OBJ       1
    x[0,6]    primal_lower  1.0243228845171923e+00
    x[1,0]    OBJ       1
    x[1,0]    primal_lower  1.0739123898537810e+00
    x[1,2]    OBJ       1
    x[1,2]    primal_lower  3.5171793542079182e+00
    x[1,3]    OBJ       1
    x[1,3]    primal_lower  2.8487070362490572e+00
    x[1,4]    OBJ       1
    x[1,4]    primal_lower  1.7162956043209703e+00
    x[1,6]    OBJ       1
    x[1,6]    primal_lower  2.2684565258367742e+00
    x[2,0]    OBJ       1
    x[2,0]    primal_lower  7.5502443025030563e-01
    x[2,1]    OBJ       1
    x[2,1]    primal_lower  5.9945852553836387e-01
    x[2,3]    OBJ       1
    x[2,3]    primal_lower  1.6050111990208487e+00
    x[2,5]    OBJ       1
    x[2,5]    primal_lower  4.6001623799247531e+00
    x[2,6]    OBJ       1
    x[2,6]    primal_lower  6.1612772770305790e-01
    x[3,1]    OBJ       1
    x[3,1]    primal_lower  9.6756209898776457e-01
    x[3,2]    OBJ       1
    x[3,2]    primal_lower  2.8514713757252469e-01
    x[3,4]    OBJ       1
    x[3,4]    primal_lower  3.1713291826968049e+00
    x[3,5]    OBJ       1
    x[3,5]    primal_lower  1.5055511767086511e+00
    x[3,6]    OBJ       1
    x[3,6]    primal_lower  8.5274500528167332e-02
    x[4,1]    OBJ       1
    x[4,1]    primal_lower  1.5190547138440831e+00
    x[4,3]    OBJ       1
    x[4,3]    primal_lower  1.5501932903981834e+00
    x[4,5]    OBJ       1
    x[4,5]    primal_lower  1.4520499594264831e+00
    x[4,6]    OBJ       1
    x[4,6]    primal_lower  2.0962087189769107e+00
    x[5,0]    OBJ       1
    x[5,0]    primal_lower  3.8467473997215920e+00
    x[5,2]    OBJ       1
    x[5,2]    primal_lower  5.6995489855224812e-01
    x[5,3]    OBJ       1
    x[5,3]    primal_lower  4.0713117951883708e+00
    x[5,4]    OBJ       1
    x[5,4]    primal_lower  2.4052559050386937e+00
    x[5,6]    OBJ       1
    x[5,6]    primal_lower  4.6961167083872688e+00
    x[6,0]    OBJ       1
    x[6,0]    primal_lower  8.7792749228558542e-01
    x[6,1]    OBJ       1
    x[6,1]    primal_lower  4.2193807446125025e+00
    x[6,2]    OBJ       1
    x[6,2]    primal_lower  1.1789551490050929e-01
    x[6,3]    OBJ       1
    x[6,3]    primal_lower  1.2740087996235205e+00
    x[6,4]    OBJ       1
    x[6,4]    primal_lower  1.7263562634436074e+00
    x[6,5]    OBJ       1
    x[6,5]    primal_lower  5.3517714809262591e+00
    u[0,1]    primal_lower  90
    u[0,1]    mccormick1[0,1]  -1
    u[0,1]    mccormick3[0,1]  -1
    u[0,2]    primal_lower  19
    u[0,2]    mccormick1[0,2]  -1
    u[0,2]    mccormick3[0,2]  -1
    u[0,5]    primal_lower  61
    u[0,5]    mccormick1[0,5]  -1
    u[0,5]    mccormick3[0,5]  -1
    u[0,6]    primal_lower  70
    u[0,6]    mccormick1[0,6]  -1
    u[0,6]    mccormick3[0,6]  -1
    u[1,0]    primal_lower  59
    u[1,0]    mccormick1[1,0]  -1
    u[1,0]    mccormick3[1,0]  -1
    u[1,2]    primal_lower  44
    u[1,2]    mccormick1[1,2]  -1
    u[1,2]    mccormick3[1,2]  -1
    u[1,3]    primal_lower  72
    u[1,3]    mccormick1[1,3]  -1
    u[1,3]    mccormick3[1,3]  -1
    u[1,4]    primal_lower  22
    u[1,4]    mccormick1[1,4]  -1
    u[1,4]    mccormick3[1,4]  -1
    u[1,6]    primal_lower  96
    u[1,6]    mccormick1[1,6]  -1
    u[1,6]    mccormick3[1,6]  -1
    u[2,0]    primal_lower  17
    u[2,0]    mccormick1[2,0]  -1
    u[2,0]    mccormick3[2,0]  -1
    u[2,1]    primal_lower  66
    u[2,1]    mccormick1[2,1]  -1
    u[2,1]    mccormick3[2,1]  -1
    u[2,3]    primal_lower  86
    u[2,3]    mccormick1[2,3]  -1
    u[2,3]    mccormick3[2,3]  -1
    u[2,5]    primal_lower  67
    u[2,5]    mccormick1[2,5]  -1
    u[2,5]    mccormick3[2,5]  -1
    u[2,6]    primal_lower  91
    u[2,6]    mccormick1[2,6]  -1
    u[2,6]    mccormick3[2,6]  -1
    u[3,1]    primal_lower  99
    u[3,1]    mccormick1[3,1]  -1
    u[3,1]    mccormick3[3,1]  -1
    u[3,2]    primal_lower  99
    u[3,2]    mccormick1[3,2]  -1
    u[3,2]    mccormick3[3,2]  -1
    u[3,4]    primal_lower  8
    u[3,4]    mccormick1[3,4]  -1
    u[3,4]    mccormick3[3,4]  -1
    u[3,5]    primal_lower  63
    u[3,5]    mccormick1[3,5]  -1
    u[3,5]    mccormick3[3,5]  -1
    u[3,6]    primal_lower  84
    u[3,6]    mccormick1[3,6]  -1
    u[3,6]    mccormick3[3,6]  -1
    u[4,1]    primal_lower  57
    u[4,1]    mccormick1[4,1]  -1
    u[4,1]    mccormick3[4,1]  -1
    u[4,3]    primal_lower  80
    u[4,3]    mccormick1[4,3]  -1
    u[4,3]    mccormick3[4,3]  -1
    u[4,5]    primal_lower  10
    u[4,5]    mccormick1[4,5]  -1
    u[4,5]    mccormick3[4,5]  -1
    u[4,6]    primal_lower  79
    u[4,6]    mccormick1[4,6]  -1
    u[4,6]    mccormick3[4,6]  -1
    u[5,0]    primal_lower  97
    u[5,0]    mccormick1[5,0]  -1
    u[5,0]    mccormick3[5,0]  -1
    u[5,2]    primal_lower  19
    u[5,2]    mccormick1[5,2]  -1
    u[5,2]    mccormick3[5,2]  -1
    u[5,3]    primal_lower  71
    u[5,3]    mccormick1[5,3]  -1
    u[5,3]    mccormick3[5,3]  -1
    u[5,4]    primal_lower  41
    u[5,4]    mccormick1[5,4]  -1
    u[5,4]    mccormick3[5,4]  -1
    u[5,6]    primal_lower  2
    u[5,6]    mccormick1[5,6]  -1
    u[5,6]    mccormick3[5,6]  -1
    u[6,0]    primal_lower  32
    u[6,0]    mccormick1[6,0]  -1
    u[6,0]    mccormick3[6,0]  -1
    u[6,1]    primal_lower  10
    u[6,1]    mccormick1[6,1]  -1
    u[6,1]    mccormick3[6,1]  -1
    u[6,2]    primal_lower  56
    u[6,2]    mccormick1[6,2]  -1
    u[6,2]    mccormick3[6,2]  -1
    u[6,3]    primal_lower  86
    u[6,3]    mccormick1[6,3]  -1
    u[6,3]    mccormick3[6,3]  -1
    u[6,4]    primal_lower  54
    u[6,4]    mccormick1[6,4]  -1
    u[6,4]    mccormick3[6,4]  -1
    u[6,5]    primal_lower  96
    u[6,5]    mccormick1[6,5]  -1
    u[6,5]    mccormick3[6,5]  -1
    r[0,1]    OBJ       5.4918120870983929e+00
    r[0,1]    mccormick1[0,1]  1
    r[0,1]    mccormick2[0,1]  1
    r[0,1]    mccormick3[0,1]  1
    r[0,2]    OBJ       4.3174066289845809e+00
    r[0,2]    mccormick1[0,2]  1
    r[0,2]    mccormick2[0,2]  1
    r[0,2]    mccormick3[0,2]  1
    r[0,5]    OBJ       8.5632937588290172e+00
    r[0,5]    mccormick1[0,5]  1
    r[0,5]    mccormick2[0,5]  1
    r[0,5]    mccormick3[0,5]  1
    r[0,6]    OBJ       1.7464249196572981e+00
    r[0,6]    mccormick1[0,6]  1
    r[0,6]    mccormick2[0,6]  1
    r[0,6]    mccormick3[0,6]  1
    r[1,0]    OBJ       5.4918120870983929e+00
    r[1,0]    mccormick1[1,0]  1
    r[1,0]    mccormick2[1,0]  1
    r[1,0]    mccormick3[1,0]  1
    r[1,2]    OBJ       8.0498447189992444e+00
    r[1,2]    mccormick1[1,2]  1
    r[1,2]    mccormick2[1,2]  1
    r[1,2]    mccormick3[1,2]  1
    r[1,3]    OBJ       8.4581321815162
    r[1,3]    mccormick1[1,3]  1
    r[1,3]    mccormick2[1,3]  1
    r[1,3]    mccormick3[1,3]  1
    r[1,4]    OBJ       4.5354161881794273e+00
    r[1,4]    mccormick1[1,4]  1
    r[1,4]    mccormick2[1,4]  1
    r[1,4]    mccormick3[1,4]  1
    r[1,6]    OBJ       4.7634021455258218e+00
    r[1,6]    mccormick1[1,6]  1
    r[1,6]    mccormick2[1,6]  1
    r[1,6]    mccormick3[1,6]  1
    r[2,0]    OBJ       4.3174066289845809e+00
    r[2,0]    mccormick1[2,0]  1
    r[2,0]    mccormick2[2,0]  1
    r[2,0]    mccormick3[2,0]  1
    r[2,1]    OBJ       8.0498447189992444e+00
    r[2,1]    mccormick1[2,1]  1
    r[2,1]    mccormick2[2,1]  1
    r[2,1]    mccormick3[2,1]  1
    r[2,3]    OBJ       7.1175838597096988e+00
    r[2,3]    mccormick1[2,3]  1
    r[2,3]    mccormick2[2,3]  1
    r[2,3]    mccormick3[2,3]  1
    r[2,5]    OBJ       5.2392747589718951e+00
    r[2,5]    mccormick1[2,5]  1
    r[2,5]    mccormick2[2,5]  1
    r[2,5]    mccormick3[2,5]  1
    r[2,6]    OBJ       3.5510561809129406e+00
    r[2,6]    mccormick1[2,6]  1
    r[2,6]    mccormick2[2,6]  1
    r[2,6]    mccormick3[2,6]  1
    r[3,1]    OBJ       8.4581321815162
    r[3,1]    mccormick1[3,1]  1
    r[3,1]    mccormick2[3,1]  1
    r[3,1]    mccormick3[3,1]  1
    r[3,2]    OBJ       7.1175838597096988e+00
    r[3,2]    mccormick1[3,2]  1
    r[3,2]    mccormick2[3,2]  1
    r[3,2]    mccormick3[3,2]  1
    r[3,4]    OBJ       6.6610809933523560e+00
    r[3,4]    mccormick1[3,4]  1
    r[3,4]    mccormick2[3,4]  1
    r[3,4]    mccormick3[3,4]  1
    r[3,5]    OBJ       2.8017851452243803e+00
    r[3,5]    mccormick1[3,5]  1
    r[3,5]    mccormick2[3,5]  1
    r[3,5]    mccormick3[3,5]  1
    r[3,6]    OBJ       7.6321687612368736e+00
    r[3,6]    mccormick1[3,6]  1
    r[3,6]    mccormick2[3,6]  1
    r[3,6]    mccormick3[3,6]  1
    r[4,1]    OBJ       4.5354161881794273e+00
    r[4,1]    mccormick1[4,1]  1
    r[4,1]    mccormick2[4,1]  1
    r[4,1]    mccormick3[4,1]  1
    r[4,3]    OBJ       6.6610809933523560e+00
    r[4,3]    mccormick1[4,3]  1
    r[4,3]    mccormick2[4,3]  1
    r[4,3]    mccormick3[4,3]  1
    r[4,5]    OBJ       8.8022724338661558e+00
    r[4,5]    mccormick1[4,5]  1
    r[4,5]    mccormick2[4,5]  1
    r[4,5]    mccormick3[4,5]  1
    r[4,6]    OBJ       7.8434686204510315e+00
    r[4,6]    mccormick1[4,6]  1
    r[4,6]    mccormick2[4,6]  1
    r[4,6]    mccormick3[4,6]  1
    r[5,0]    OBJ       8.5632937588290172e+00
    r[5,0]    mccormick1[5,0]  1
    r[5,0]    mccormick2[5,0]  1
    r[5,0]    mccormick3[5,0]  1
    r[5,2]    OBJ       5.2392747589718951e+00
    r[5,2]    mccormick1[5,2]  1
    r[5,2]    mccormick2[5,2]  1
    r[5,2]    mccormick3[5,2]  1
    r[5,3]    OBJ       2.8017851452243803e+00
    r[5,3]    mccormick1[5,3]  1
    r[5,3]    mccormick2[5,3]  1
    r[5,3]    mccormick3[5,3]  1
    r[5,4]    OBJ       8.8022724338661558e+00
    r[5,4]    mccormick1[5,4]  1
    r[5,4]    mccormick2[5,4]  1
    r[5,4]    mccormick3[5,4]  1
    r[5,6]    OBJ       7
    r[5,6]    mccormick1[5,6]  1
    r[5,6]    mccormick2[5,6]  1
    r[5,6]    mccormick3[5,6]  1
    r[6,0]    OBJ       1.7464249196572981e+00
    r[6,0]    mccormick1[6,0]  1
    r[6,0]    mccormick2[6,0]  1
    r[6,0]    mccormick3[6,0]  1
    r[6,1]    OBJ       4.7634021455258218e+00
    r[6,1]    mccormick1[6,1]  1
    r[6,1]    mccormick2[6,1]  1
    r[6,1]    mccormick3[6,1]  1
    r[6,2]    OBJ       3.5510561809129406e+00
    r[6,2]    mccormick1[6,2]  1
    r[6,2]    mccormick2[6,2]  1
    r[6,2]    mccormick3[6,2]  1
    r[6,3]    OBJ       7.6321687612368736e+00
    r[6,3]    mccormick1[6,3]  1
    r[6,3]    mccormick2[6,3]  1
    r[6,3]    mccormick3[6,3]  1
    r[6,4]    OBJ       7.8434686204510315e+00
    r[6,4]    mccormick1[6,4]  1
    r[6,4]    mccormick2[6,4]  1
    r[6,4]    mccormick3[6,4]  1
    r[6,5]    OBJ       7
    r[6,5]    mccormick1[6,5]  1
    r[6,5]    mccormick2[6,5]  1
    r[6,5]    mccormick3[6,5]  1
    MARKER    'MARKER'                 'INTEND'
RHS
    RHS1      flow_cons_source  1
    RHS1      flow_cons_target  1
    RHS1      primal_lower  182
    RHS1      mccormick3[0,1]  -1
    RHS1      mccormick3[0,2]  -1
    RHS1      mccormick3[0,5]  -1
    RHS1      mccormick3[0,6]  -1
    RHS1      mccormick3[1,0]  -1
    RHS1      mccormick3[1,2]  -1
    RHS1      mccormick3[1,3]  -1
    RHS1      mccormick3[1,4]  -1
    RHS1      mccormick3[1,6]  -1
    RHS1      mccormick3[2,0]  -1
    RHS1      mccormick3[2,1]  -1
    RHS1      mccormick3[2,3]  -1
    RHS1      mccormick3[2,5]  -1
    RHS1      mccormick3[2,6]  -1
    RHS1      mccormick3[3,1]  -1
    RHS1      mccormick3[3,2]  -1
    RHS1      mccormick3[3,4]  -1
    RHS1      mccormick3[3,5]  -1
    RHS1      mccormick3[3,6]  -1
    RHS1      mccormick3[4,1]  -1
    RHS1      mccormick3[4,3]  -1
    RHS1      mccormick3[4,5]  -1
    RHS1      mccormick3[4,6]  -1
    RHS1      mccormick3[5,0]  -1
    RHS1      mccormick3[5,2]  -1
    RHS1      mccormick3[5,3]  -1
    RHS1      mccormick3[5,4]  -1
    RHS1      mccormick3[5,6]  -1
    RHS1      mccormick3[6,0]  -1
    RHS1      mccormick3[6,1]  -1
    RHS1      mccormick3[6,2]  -1
    RHS1      mccormick3[6,3]  -1
    RHS1      mccormick3[6,4]  -1
    RHS1      mccormick3[6,5]  -1
BOUNDS
 BV BND1      y[0,1]  
 BV BND1      y[0,2]  
 BV BND1      y[0,5]  
 BV BND1      y[0,6]  
 BV BND1      y[1,0]  
 BV BND1      y[1,2]  
 BV BND1      y[1,3]  
 BV BND1      y[1,4]  
 BV BND1      y[1,6]  
 BV BND1      y[2,0]  
 BV BND1      y[2,1]  
 BV BND1      y[2,3]  
 BV BND1      y[2,5]  
 BV BND1      y[2,6]  
 BV BND1      y[3,1]  
 BV BND1      y[3,2]  
 BV BND1      y[3,4]  
 BV BND1      y[3,5]  
 BV BND1      y[3,6]  
 BV BND1      y[4,1]  
 BV BND1      y[4,3]  
 BV BND1      y[4,5]  
 BV BND1      y[4,6]  
 BV BND1      y[5,0]  
 BV BND1      y[5,2]  
 BV BND1      y[5,3]  
 BV BND1      y[5,4]  
 BV BND1      y[5,6]  
 BV BND1      y[6,0]  
 BV BND1      y[6,1]  
 BV BND1      y[6,2]  
 BV BND1      y[6,3]  
 BV BND1      y[6,4]  
 BV BND1      y[6,5]  
 BV BND1      x[0,1]  
 BV BND1      x[0,2]  
 BV BND1      x[0,5]  
 BV BND1      x[0,6]  
 BV BND1      x[1,0]  
 BV BND1      x[1,2]  
 BV BND1      x[1,3]  
 BV BND1      x[1,4]  
 BV BND1      x[1,6]  
 BV BND1      x[2,0]  
 BV BND1      x[2,1]  
 BV BND1      x[2,3]  
 BV BND1      x[2,5]  
 BV BND1      x[2,6]  
 BV BND1      x[3,1]  
 BV BND1      x[3,2]  
 BV BND1      x[3,4]  
 BV BND1      x[3,5]  
 BV BND1      x[3,6]  
 BV BND1      x[4,1]  
 BV BND1      x[4,3]  
 BV BND1      x[4,5]  
 BV BND1      x[4,6]  
 BV BND1      x[5,0]  
 BV BND1      x[5,2]  
 BV BND1      x[5,3]  
 BV BND1      x[5,4]  
 BV BND1      x[5,6]  
 BV BND1      x[6,0]  
 BV BND1      x[6,1]  
 BV BND1      x[6,2]  
 BV BND1      x[6,3]  
 BV BND1      x[6,4]  
 BV BND1      x[6,5]  
 BV BND1      u[0,1]  
 BV BND1      u[0,2]  
 BV BND1      u[0,5]  
 BV BND1      u[0,6]  
 BV BND1      u[1,0]  
 BV BND1      u[1,2]  
 BV BND1      u[1,3]  
 BV BND1      u[1,4]  
 BV BND1      u[1,6]  
 BV BND1      u[2,0]  
 BV BND1      u[2,1]  
 BV BND1      u[2,3]  
 BV BND1      u[2,5]  
 BV BND1      u[2,6]  
 BV BND1      u[3,1]  
 BV BND1      u[3,2]  
 BV BND1      u[3,4]  
 BV BND1      u[3,5]  
 BV BND1      u[3,6]  
 BV BND1      u[4,1]  
 BV BND1      u[4,3]  
 BV BND1      u[4,5]  
 BV BND1      u[4,6]  
 BV BND1      u[5,0]  
 BV BND1      u[5,2]  
 BV BND1      u[5,3]  
 BV BND1      u[5,4]  
 BV BND1      u[5,6]  
 BV BND1      u[6,0]  
 BV BND1      u[6,1]  
 BV BND1      u[6,2]  
 BV BND1      u[6,3]  
 BV BND1      u[6,4]  
 BV BND1      u[6,5]  
 BV BND1      r[0,1]  
 BV BND1      r[0,2]  
 BV BND1      r[0,5]  
 BV BND1      r[0,6]  
 BV BND1      r[1,0]  
 BV BND1      r[1,2]  
 BV BND1      r[1,3]  
 BV BND1      r[1,4]  
 BV BND1      r[1,6]  
 BV BND1      r[2,0]  
 BV BND1      r[2,1]  
 BV BND1      r[2,3]  
 BV BND1      r[2,5]  
 BV BND1      r[2,6]  
 BV BND1      r[3,1]  
 BV BND1      r[3,2]  
 BV BND1      r[3,4]  
 BV BND1      r[3,5]  
 BV BND1      r[3,6]  
 BV BND1      r[4,1]  
 BV BND1      r[4,3]  
 BV BND1      r[4,5]  
 BV BND1      r[4,6]  
 BV BND1      r[5,0]  
 BV BND1      r[5,2]  
 BV BND1      r[5,3]  
 BV BND1      r[5,4]  
 BV BND1      r[5,6]  
 BV BND1      r[6,0]  
 BV BND1      r[6,1]  
 BV BND1      r[6,2]  
 BV BND1      r[6,3]  
 BV BND1      r[6,4]  
 BV BND1      r[6,5]  
ENDATA
