instances/shortest_path/discrete/shortest_path_7_14.kp
71315
182

[3.1398965690485023 2.939819712187973 2.3062343935169296 1.0243228845171923 1.073912389853781 3.517179354207918 2.848707036249057 1.7162956043209703 2.268456525836774 0.7550244302503056 0.5994585255383639 1.6050111990208487 4.600162379924753 0.6161277277030579 0.9675620989877646 0.2851471375725247 3.171329182696805 1.5055511767086511 0.08527450052816733 1.519054713844083 1.5501932903981834 1.452049959426483 2.0962087189769107 3.846747399721592 0.5699548985522481 4.071311795188371 2.4052559050386937 4.696116708387269 0.8779274922855854 4.2193807446125025 0.11789551490050929 1.2740087996235205 1.7263562634436074 5.351771480926259]

[90 19 61 70 59 44 72 22 96 17 66 86 67 91 99 99 8 63 84 57 80 10 79 97 19 71 41 2 32 10 56 86 54 96]
